c description: Tseitin formula on , with even charge
c generator: CNFgen (0.9.0)
c copyright: (C) 2012-2020 Massimo Lauria <massimo.lauria@uniroma1.it>
c url: https://massimolauria.net/cnfgen
c
p cnf 40 392
1 2 3 -4 0
1 2 -3 4 0
1 -2 3 4 0
1 -2 -3 -4 0
-1 2 3 4 0
-1 2 -3 -4 0
-1 -2 3 -4 0
-1 -2 -3 4 0
-5 0
6 7 8 9 10 11 -12 0
6 7 8 9 10 -11 12 0
6 7 8 9 -10 11 12 0
6 7 8 9 -10 -11 -12 0
6 7 8 -9 10 11 12 0
6 7 8 -9 10 -11 -12 0
6 7 8 -9 -10 11 -12 0
6 7 8 -9 -10 -11 12 0
6 7 -8 9 10 11 12 0
6 7 -8 9 10 -11 -12 0
6 7 -8 9 -10 11 -12 0
6 7 -8 9 -10 -11 12 0
6 7 -8 -9 10 11 -12 0
6 7 -8 -9 10 -11 12 0
6 7 -8 -9 -10 11 12 0
6 7 -8 -9 -10 -11 -12 0
6 -7 8 9 10 11 12 0
6 -7 8 9 10 -11 -12 0
6 -7 8 9 -10 11 -12 0
6 -7 8 9 -10 -11 12 0
6 -7 8 -9 10 11 -12 0
6 -7 8 -9 10 -11 12 0
6 -7 8 -9 -10 11 12 0
6 -7 8 -9 -10 -11 -12 0
6 -7 -8 9 10 11 -12 0
6 -7 -8 9 10 -11 12 0
6 -7 -8 9 -10 11 12 0
6 -7 -8 9 -10 -11 -12 0
6 -7 -8 -9 10 11 12 0
6 -7 -8 -9 10 -11 -12 0
6 -7 -8 -9 -10 11 -12 0
6 -7 -8 -9 -10 -11 12 0
-6 7 8 9 10 11 12 0
-6 7 8 9 10 -11 -12 0
-6 7 8 9 -10 11 -12 0
-6 7 8 9 -10 -11 12 0
-6 7 8 -9 10 11 -12 0
-6 7 8 -9 10 -11 12 0
-6 7 8 -9 -10 11 12 0
-6 7 8 -9 -10 -11 -12 0
-6 7 -8 9 10 11 -12 0
-6 7 -8 9 10 -11 12 0
-6 7 -8 9 -10 11 12 0
-6 7 -8 9 -10 -11 -12 0
-6 7 -8 -9 10 11 12 0
-6 7 -8 -9 10 -11 -12 0
-6 7 -8 -9 -10 11 -12 0
-6 7 -8 -9 -10 -11 12 0
-6 -7 8 9 10 11 -12 0
-6 -7 8 9 10 -11 12 0
-6 -7 8 9 -10 11 12 0
-6 -7 8 9 -10 -11 -12 0
-6 -7 8 -9 10 11 12 0
-6 -7 8 -9 10 -11 -12 0
-6 -7 8 -9 -10 11 -12 0
-6 -7 8 -9 -10 -11 12 0
-6 -7 -8 9 10 11 12 0
-6 -7 -8 9 10 -11 -12 0
-6 -7 -8 9 -10 11 -12 0
-6 -7 -8 9 -10 -11 12 0
-6 -7 -8 -9 10 11 -12 0
-6 -7 -8 -9 10 -11 12 0
-6 -7 -8 -9 -10 11 12 0
-6 -7 -8 -9 -10 -11 -12 0
-13 0
1 6 14 15 16 -17 0
1 6 14 15 -16 17 0
1 6 14 -15 16 17 0
1 6 14 -15 -16 -17 0
1 6 -14 15 16 17 0
1 6 -14 15 -16 -17 0
1 6 -14 -15 16 -17 0
1 6 -14 -15 -16 17 0
1 -6 14 15 16 17 0
1 -6 14 15 -16 -17 0
1 -6 14 -15 16 -17 0
1 -6 14 -15 -16 17 0
1 -6 -14 15 16 -17 0
1 -6 -14 15 -16 17 0
1 -6 -14 -15 16 17 0
1 -6 -14 -15 -16 -17 0
-1 6 14 15 16 17 0
-1 6 14 15 -16 -17 0
-1 6 14 -15 16 -17 0
-1 6 14 -15 -16 17 0
-1 6 -14 15 16 -17 0
-1 6 -14 15 -16 17 0
-1 6 -14 -15 16 17 0
-1 6 -14 -15 -16 -17 0
-1 -6 14 15 16 -17 0
-1 -6 14 15 -16 17 0
-1 -6 14 -15 16 17 0
-1 -6 14 -15 -16 -17 0
-1 -6 -14 15 16 17 0
-1 -6 -14 15 -16 -17 0
-1 -6 -14 -15 16 -17 0
-1 -6 -14 -15 -16 17 0
18 -19 0
-18 19 0
7 20 -21 0
7 -20 21 0
-7 20 21 0
-7 -20 -21 0
2 8 -22 0
2 -8 22 0
-2 8 22 0
-2 -8 -22 0
9 18 23 24 -25 0
9 18 23 -24 25 0
9 18 -23 24 25 0
9 18 -23 -24 -25 0
9 -18 23 24 25 0
9 -18 23 -24 -25 0
9 -18 -23 24 -25 0
9 -18 -23 -24 25 0
-9 18 23 24 25 0
-9 18 23 -24 -25 0
-9 18 -23 24 -25 0
-9 18 -23 -24 25 0
-9 -18 23 24 -25 0
-9 -18 23 -24 25 0
-9 -18 -23 24 25 0
-9 -18 -23 -24 -25 0
10 14 19 -26 0
10 14 -19 26 0
10 -14 19 26 0
10 -14 -19 -26 0
-10 14 19 26 0
-10 14 -19 -26 0
-10 -14 19 -26 0
-10 -14 -19 26 0
27 28 -29 0
27 -28 29 0
-27 28 29 0
-27 -28 -29 0
27 30 -31 0
27 -30 31 0
-27 30 31 0
-27 -30 -31 0
22 32 -33 0
22 -32 33 0
-22 32 33 0
-22 -32 -33 0
32 34 35 -36 0
32 34 -35 36 0
32 -34 35 36 0
32 -34 -35 -36 0
-32 34 35 36 0
-32 34 -35 -36 0
-32 -34 35 -36 0
-32 -34 -35 36 0
5 13 15 23 -37 0
5 13 15 -23 37 0
5 13 -15 23 37 0
5 13 -15 -23 -37 0
5 -13 15 23 37 0
5 -13 15 -23 -37 0
5 -13 -15 23 -37 0
5 -13 -15 -23 37 0
-5 13 15 23 37 0
-5 13 15 -23 -37 0
-5 13 -15 23 -37 0
-5 13 -15 -23 37 0
-5 -13 15 23 -37 0
-5 -13 15 -23 37 0
-5 -13 -15 23 37 0
-5 -13 -15 -23 -37 0
3 28 -34 0
3 -28 34 0
-3 28 34 0
-3 -28 -34 0
11 29 30 35 -38 0
11 29 30 -35 38 0
11 29 -30 35 38 0
11 29 -30 -35 -38 0
11 -29 30 35 38 0
11 -29 30 -35 -38 0
11 -29 -30 35 -38 0
11 -29 -30 -35 38 0
-11 29 30 35 38 0
-11 29 30 -35 -38 0
-11 29 -30 35 -38 0
-11 29 -30 -35 38 0
-11 -29 30 35 -38 0
-11 -29 30 -35 38 0
-11 -29 -30 35 38 0
-11 -29 -30 -35 -38 0
4 20 26 31 33 38 -39 0
4 20 26 31 33 -38 39 0
4 20 26 31 -33 38 39 0
4 20 26 31 -33 -38 -39 0
4 20 26 -31 33 38 39 0
4 20 26 -31 33 -38 -39 0
4 20 26 -31 -33 38 -39 0
4 20 26 -31 -33 -38 39 0
4 20 -26 31 33 38 39 0
4 20 -26 31 33 -38 -39 0
4 20 -26 31 -33 38 -39 0
4 20 -26 31 -33 -38 39 0
4 20 -26 -31 33 38 -39 0
4 20 -26 -31 33 -38 39 0
4 20 -26 -31 -33 38 39 0
4 20 -26 -31 -33 -38 -39 0
4 -20 26 31 33 38 39 0
4 -20 26 31 33 -38 -39 0
4 -20 26 31 -33 38 -39 0
4 -20 26 31 -33 -38 39 0
4 -20 26 -31 33 38 -39 0
4 -20 26 -31 33 -38 39 0
4 -20 26 -31 -33 38 39 0
4 -20 26 -31 -33 -38 -39 0
4 -20 -26 31 33 38 -39 0
4 -20 -26 31 33 -38 39 0
4 -20 -26 31 -33 38 39 0
4 -20 -26 31 -33 -38 -39 0
4 -20 -26 -31 33 38 39 0
4 -20 -26 -31 33 -38 -39 0
4 -20 -26 -31 -33 38 -39 0
4 -20 -26 -31 -33 -38 39 0
-4 20 26 31 33 38 39 0
-4 20 26 31 33 -38 -39 0
-4 20 26 31 -33 38 -39 0
-4 20 26 31 -33 -38 39 0
-4 20 26 -31 33 38 -39 0
-4 20 26 -31 33 -38 39 0
-4 20 26 -31 -33 38 39 0
-4 20 26 -31 -33 -38 -39 0
-4 20 -26 31 33 38 -39 0
-4 20 -26 31 33 -38 39 0
-4 20 -26 31 -33 38 39 0
-4 20 -26 31 -33 -38 -39 0
-4 20 -26 -31 33 38 39 0
-4 20 -26 -31 33 -38 -39 0
-4 20 -26 -31 -33 38 -39 0
-4 20 -26 -31 -33 -38 39 0
-4 -20 26 31 33 38 -39 0
-4 -20 26 31 33 -38 39 0
-4 -20 26 31 -33 38 39 0
-4 -20 26 31 -33 -38 -39 0
-4 -20 26 -31 33 38 39 0
-4 -20 26 -31 33 -38 -39 0
-4 -20 26 -31 -33 38 -39 0
-4 -20 26 -31 -33 -38 39 0
-4 -20 -26 31 33 38 39 0
-4 -20 -26 31 33 -38 -39 0
-4 -20 -26 31 -33 38 -39 0
-4 -20 -26 31 -33 -38 39 0
-4 -20 -26 -31 33 38 -39 0
-4 -20 -26 -31 33 -38 39 0
-4 -20 -26 -31 -33 38 39 0
-4 -20 -26 -31 -33 -38 -39 0
16 24 -40 0
16 -24 40 0
-16 24 40 0
-16 -24 -40 0
12 17 21 25 36 37 39 -40 0
12 17 21 25 36 37 -39 40 0
12 17 21 25 36 -37 39 40 0
12 17 21 25 36 -37 -39 -40 0
12 17 21 25 -36 37 39 40 0
12 17 21 25 -36 37 -39 -40 0
12 17 21 25 -36 -37 39 -40 0
12 17 21 25 -36 -37 -39 40 0
12 17 21 -25 36 37 39 40 0
12 17 21 -25 36 37 -39 -40 0
12 17 21 -25 36 -37 39 -40 0
12 17 21 -25 36 -37 -39 40 0
12 17 21 -25 -36 37 39 -40 0
12 17 21 -25 -36 37 -39 40 0
12 17 21 -25 -36 -37 39 40 0
12 17 21 -25 -36 -37 -39 -40 0
12 17 -21 25 36 37 39 40 0
12 17 -21 25 36 37 -39 -40 0
12 17 -21 25 36 -37 39 -40 0
12 17 -21 25 36 -37 -39 40 0
12 17 -21 25 -36 37 39 -40 0
12 17 -21 25 -36 37 -39 40 0
12 17 -21 25 -36 -37 39 40 0
12 17 -21 25 -36 -37 -39 -40 0
12 17 -21 -25 36 37 39 -40 0
12 17 -21 -25 36 37 -39 40 0
12 17 -21 -25 36 -37 39 40 0
12 17 -21 -25 36 -37 -39 -40 0
12 17 -21 -25 -36 37 39 40 0
12 17 -21 -25 -36 37 -39 -40 0
12 17 -21 -25 -36 -37 39 -40 0
12 17 -21 -25 -36 -37 -39 40 0
12 -17 21 25 36 37 39 40 0
12 -17 21 25 36 37 -39 -40 0
12 -17 21 25 36 -37 39 -40 0
12 -17 21 25 36 -37 -39 40 0
12 -17 21 25 -36 37 39 -40 0
12 -17 21 25 -36 37 -39 40 0
12 -17 21 25 -36 -37 39 40 0
12 -17 21 25 -36 -37 -39 -40 0
12 -17 21 -25 36 37 39 -40 0
12 -17 21 -25 36 37 -39 40 0
12 -17 21 -25 36 -37 39 40 0
12 -17 21 -25 36 -37 -39 -40 0
12 -17 21 -25 -36 37 39 40 0
12 -17 21 -25 -36 37 -39 -40 0
12 -17 21 -25 -36 -37 39 -40 0
12 -17 21 -25 -36 -37 -39 40 0
12 -17 -21 25 36 37 39 -40 0
12 -17 -21 25 36 37 -39 40 0
12 -17 -21 25 36 -37 39 40 0
12 -17 -21 25 36 -37 -39 -40 0
12 -17 -21 25 -36 37 39 40 0
12 -17 -21 25 -36 37 -39 -40 0
12 -17 -21 25 -36 -37 39 -40 0
12 -17 -21 25 -36 -37 -39 40 0
12 -17 -21 -25 36 37 39 40 0
12 -17 -21 -25 36 37 -39 -40 0
12 -17 -21 -25 36 -37 39 -40 0
12 -17 -21 -25 36 -37 -39 40 0
12 -17 -21 -25 -36 37 39 -40 0
12 -17 -21 -25 -36 37 -39 40 0
12 -17 -21 -25 -36 -37 39 40 0
12 -17 -21 -25 -36 -37 -39 -40 0
-12 17 21 25 36 37 39 40 0
-12 17 21 25 36 37 -39 -40 0
-12 17 21 25 36 -37 39 -40 0
-12 17 21 25 36 -37 -39 40 0
-12 17 21 25 -36 37 39 -40 0
-12 17 21 25 -36 37 -39 40 0
-12 17 21 25 -36 -37 39 40 0
-12 17 21 25 -36 -37 -39 -40 0
-12 17 21 -25 36 37 39 -40 0
-12 17 21 -25 36 37 -39 40 0
-12 17 21 -25 36 -37 39 40 0
-12 17 21 -25 36 -37 -39 -40 0
-12 17 21 -25 -36 37 39 40 0
-12 17 21 -25 -36 37 -39 -40 0
-12 17 21 -25 -36 -37 39 -40 0
-12 17 21 -25 -36 -37 -39 40 0
-12 17 -21 25 36 37 39 -40 0
-12 17 -21 25 36 37 -39 40 0
-12 17 -21 25 36 -37 39 40 0
-12 17 -21 25 36 -37 -39 -40 0
-12 17 -21 25 -36 37 39 40 0
-12 17 -21 25 -36 37 -39 -40 0
-12 17 -21 25 -36 -37 39 -40 0
-12 17 -21 25 -36 -37 -39 40 0
-12 17 -21 -25 36 37 39 40 0
-12 17 -21 -25 36 37 -39 -40 0
-12 17 -21 -25 36 -37 39 -40 0
-12 17 -21 -25 36 -37 -39 40 0
-12 17 -21 -25 -36 37 39 -40 0
-12 17 -21 -25 -36 37 -39 40 0
-12 17 -21 -25 -36 -37 39 40 0
-12 17 -21 -25 -36 -37 -39 -40 0
-12 -17 21 25 36 37 39 -40 0
-12 -17 21 25 36 37 -39 40 0
-12 -17 21 25 36 -37 39 40 0
-12 -17 21 25 36 -37 -39 -40 0
-12 -17 21 25 -36 37 39 40 0
-12 -17 21 25 -36 37 -39 -40 0
-12 -17 21 25 -36 -37 39 -40 0
-12 -17 21 25 -36 -37 -39 40 0
-12 -17 21 -25 36 37 39 40 0
-12 -17 21 -25 36 37 -39 -40 0
-12 -17 21 -25 36 -37 39 -40 0
-12 -17 21 -25 36 -37 -39 40 0
-12 -17 21 -25 -36 37 39 -40 0
-12 -17 21 -25 -36 37 -39 40 0
-12 -17 21 -25 -36 -37 39 40 0
-12 -17 21 -25 -36 -37 -39 -40 0
-12 -17 -21 25 36 37 39 40 0
-12 -17 -21 25 36 37 -39 -40 0
-12 -17 -21 25 36 -37 39 -40 0
-12 -17 -21 25 36 -37 -39 40 0
-12 -17 -21 25 -36 37 39 -40 0
-12 -17 -21 25 -36 37 -39 40 0
-12 -17 -21 25 -36 -37 39 40 0
-12 -17 -21 25 -36 -37 -39 -40 0
-12 -17 -21 -25 36 37 39 -40 0
-12 -17 -21 -25 36 37 -39 40 0
-12 -17 -21 -25 36 -37 39 40 0
-12 -17 -21 -25 36 -37 -39 -40 0
-12 -17 -21 -25 -36 37 39 40 0
-12 -17 -21 -25 -36 37 -39 -40 0
-12 -17 -21 -25 -36 -37 39 -40 0
-12 -17 -21 -25 -36 -37 -39 40 0